50
150
99
99
95
94
92
91
90
87
86
84
83
82
82
81
81
81
80
80
78
78
78
77
77
74
72
71
69
68
66
66
64
63
62
62
61
60
57
55
52
52
46
46
45
45
42
39
39
38
35
32
